NAME : kro124p.43566.tour
COMMENT : Cost = 8831_43566
COMMENT : Found by LKH [Keld Helsgaun] Tue Sep 12 07:48:07 2017
TYPE : TOUR
DIMENSION : 104
TOUR_SECTION
1
63
6
49
75
19
53
16
22
94
88
70
65
26
66
4
97
56
80
31
89
42
8
92
102
90
79
18
38
24
99
36
84
10
72
21
59
74
15
17
11
91
23
45
32
47
101
67
64
54
40
44
68
85
83
55
12
7
57
86
27
20
35
62
60
77
98
103
58
25
30
48
41
100
71
3
43
46
14
29
34
9
87
51
61
28
93
104
69
73
50
2
82
95
13
76
33
37
5
52
78
96
39
81
-1
EOF
